
Gurobi 9.1.2 (linux64) logging started Thu Mar 31 09:07:44 2022

Changed value of parameter LogFile to ny_v-N13.log
   Prev:   Default: 
Changed value of parameter MIPFocus to 1
   Prev: 0  Min: 0  Max: 3  Default: 0
Changed value of parameter TimeLimit to 600.0
   Prev: inf  Min: 0.0  Max: inf  Default: inf
Warning: variables 0 and 130 have the same name "X[N2,N1]"
Warning: linear constraint 102 and linear constraint 103 have the same name "weight-constr-t5"
Warning: to let Gurobi read it back, use rlp format
Gurobi Optimizer version 9.1.2 build v9.1.2rc0 (linux64)
Thread count: 32 physical cores, 64 logical processors, using up to 32 threads
Optimize a model with 813 rows, 780 columns and 2712 nonzeros
Model fingerprint: 0x61bea7c2
Variable types: 96 continuous, 684 integer (684 binary)
Coefficient statistics:
  Matrix range     [1e+00, 1e+06]
  Objective range  [2e-01, 2e-01]
  Bounds range     [1e+00, 5e+05]
  RHS range        [1e+00, 1e+06]
Found heuristic solution: objective 36.1666667
Presolve removed 324 rows and 360 columns
Presolve time: 0.01s
Presolved: 489 rows, 420 columns, 2370 nonzeros
Variable types: 78 continuous, 342 integer (330 binary)

Root relaxation: objective 1.500000e+01, 57 iterations, 0.00 seconds

    Nodes    |    Current Node    |     Objective Bounds      |     Work
 Expl Unexpl |  Obj  Depth IntInf | Incumbent    BestBd   Gap | It/Node Time

     0     0   15.00000    0    7   36.16667   15.00000  58.5%     -    0s
H    0     0                      18.8333333   15.00000  20.4%     -    0s
H    0     0                      18.5000000   15.00000  18.9%     -    0s
     0     0   15.00000    0    9   18.50000   15.00000  18.9%     -    0s
     0     0   15.00000    0    9   18.50000   15.00000  18.9%     -    0s
     0     0   15.00000    0    1   18.50000   15.00000  18.9%     -    0s
     0     0   15.00000    0    4   18.50000   15.00000  18.9%     -    0s
     0     0   15.00000    0    4   18.50000   15.00000  18.9%     -    0s
H    0     0                      18.3333333   15.00000  18.2%     -    0s
H    0     0                      17.9166667   15.00000  16.3%     -    0s
     0     0   15.00000    0    6   17.91667   15.00000  16.3%     -    0s
H    0     2                      17.6666667   15.00000  15.1%     -    0s
     0     2   15.00000    0    6   17.66667   15.00000  15.1%     -    0s
*   11    12               3      15.0000000   15.00000  0.00%   6.0    0s

Cutting planes:
  Cover: 3
  Implied bound: 11
  Flow cover: 7
  Relax-and-lift: 2

Explored 15 nodes (920 simplex iterations) in 0.11 seconds
Thread count was 32 (of 64 available processors)

Solution count 7: 15 17.6667 17.9167 ... 36.1667

Optimal solution found (tolerance 1.00e-04)
Best objective 1.500000000000e+01, best bound 1.500000000000e+01, gap 0.0000%
